52
4 14 25
14 5 40
5 3 70
3 24 109
24 11 245
11 27 182
27 26 110
26 25 126
25 46 186
46 12 324
12 13 206
13 51 319
51 10 399
10 50 285
50 32 475
32 42 365
42 9 308
9 8 83
8 7 183
7 40 64
40 18 92
18 44 75
44 31 151
31 48 50
48 21 94
21 30 104
30 17 80
17 2 135
2 16 217
16 20 253
20 41 290
41 6 76
6 1 45
1 52 150
52 29 436
29 28 260
28 49 191
49 19 35
19 22 94
22 34 273
34 35 15
35 38 43
38 39 43
39 37 35
37 36 43
36 33 76
33 43 80
43 15 132
15 45 156
45 47 125
47 23 16
23 4 32

